sat
(:max-memory         18.04
 :memory             17.93
 :nlsat-propagations 4
 :nlsat-stages       4
 :num-allocs         5548
 :rlimit-count       1401
 :time               0.00
 :total-time         0.01)
